50
    1    28    18
    2   105    95
    3    29    19
    4    77    67
    5    15     5
    6    87    77
    7    36    26
    8    31    21
    9    25    15
   10    32    22
   11    74    64
   12    84    74
   13    38    28
   14    32    22
   15    28    18
   16   102    92
   17    70    60
   18    17     7
   19    31    21
   20    73    63
   21    20    10
   22    74    64
   23    68    58
   24    74    64
   25    13     3
   26    30    20
   27    81    71
   28    21    11
   29    77    67
   30    14     4
   31   101    91
   32   107    97
   33    82    72
   34    37    27
   35    17     7
   36    21    11
   37    34    24
   38    69    59
   39    59    49
   40    64    54
   41    74    64
   42    56    46
   43    88    78
   44    82    72
   45    57    47
   46    47    37
   47    67    57
   48    91    81
   49    29    19
   50    56    46
1112
